3
26
0 63 21 27 60 20 68 35 46 47 4 36 70 59 69 19 14 56 53 18 51 3 67 29 1 72
27
0 61 73 28 44 26 12 33 45 7 34 52 10 13 58 65 57 11 39 16 50 15 22 55 40 41 42
25
0 48 23 2 43 31 49 17 54 24 8 38 71 30 9 64 37 6 25 66 75 74 5 32 62
